  #  Volker Blum, FHI 2004 : Input file for LocalOrb code project
  #
  #  Input file control.in : All computational details for structure geometry.in
  #
  #  * First, general computational parameters:
  #
  #  Physics choices (model):
  #
    xc               pbe
  # qpe_calc         gw_expt
  # anacon_type      0
  # freq_grid_type   GL
  #  qpe_calc         gw
    total_energy_method         rpa
	frozen_core_postscf 2
  #  spin             collinear
    relativistic     atomic_zora scalar 
    occupation_type  gaussian 0.0001
    RI_method        LVL
  #  packed_matrix_format   none
  #  use_full_symmetry .true.
  #  state_lower_limit 3
  #
  #  SCF cycle:
  #
    KS_method        parallel
    mixer            pulay
      n_max_pulay    5
      charge_mix_param  0.1
    override_illconditioning .true.
  #  preconditioner kerker 2.0
    sc_accuracy_rho  1E-6
    sc_accuracy_eev  1E-4
    sc_accuracy_etot 1E-6
    sc_iter_limit    100
  # frequency_points  40
  #
  #  accuracy / efficiency for normal scf
  #
    basis_threshold  1.e-5
  #  distributed_spline_storage .true.
  #
  #  For MP2
  #
  #  hf_version 0
  #  empty_states     1000
  #  prodbas_threshold      1.e-3
  #  auxil_basis     full
  #  partition_acc 1e-20
  #  use_density_matrix_hf   .true.
  #  prodbas_threshold 1.E-3
  #
  #  For periodic
  #
    k_grid  4 4 4
  #  use_density_matrix
  #  packed_matrix_format index
  #  output k_eigenvalue 1
  #  restart  cu.slab.CO.top.pbe.relax
  #  restart_save_iterations 3
  #
  # For relaxation:
  #
  #  relax_geometry bfgs 1e-2
  #  sc_accuracy_forces 1e-4
  # ri-dens-grad
  #  * Next, specify output options:
  #    - basis
  #    - matrices
  #    - grids
  #    - v_eff
  #    - v_hartree (partitioned Hartree potentials)
  #
  #  output       basis
  #  output       matrices
  #  output       grids
  #  output       v_eff
  #  output       v_hartree
  #  output band  0.25  0.50  0.75  0.5   0.5   0.5   10 W      L
  #  output band  0.5   0.5   0.5   0.25  0.25  0.25  10 L      Lambda
  #  output band  0.25  0.25  0.25  0     0     0     10        Lambda Gamma
  #  output band  0     0       0   0.00  0.25  0.25  10        Gamma  Delta
  #  output band  0.00  0.25  0.25  0     0.5   0.5   10 Delta  X
  #  output band  0     0.5   0.5   0.125 0.5   0.625 10 X      Z
  #  output band  0.125 0.5   0.625 0.25  0.50  0.75  10 Z      W
  #  output band  0.25  0.50  0.75  0.375 0.375 0.75  10 W      K
  #  output self_energy
  #  output k_eigenvalue 1
  #  output gw_regular_kgrid
  #
################################################################################
#
#  FHI-aims code project
#  VB, Fritz-Haber Institut, 2009
#
#  Suggested "light" defaults for C atom (to be pasted into control.in file)
#  Be sure to double-check any results obtained with these settings for post-processing,
#  e.g., with the "tight" defaults and larger basis sets.
#
################################################################################
  species        C
#     global species definitions
    nucleus             6
    mass                12.0107
#
    l_hartree           4
#
    cut_pot             3.5  1.5  1.0
    basis_dep_cutoff    1e-4
#
    radial_base         34 5.0
    radial_multiplier   1
    angular_grids specified
      division   0.3326   50
      division   0.5710  110
      division   0.7727  194
      division   0.8772  302
#      division   0.9334  434
#      division   0.9625  590
#      division   0.9924  770
#      division   1.0230  974
#      division   1.4589 1202
#     outer_grid  974
     outer_grid 302
################################################################################
#
#  Definition of "minimal" basis
#
################################################################################
#     valence basis states
    valence      2  s   2.
    valence      2  p   2.
#     ion occupancy
    ion_occ      2  s   1.
    ion_occ      2  p   1.
################################################################################
#
#  Suggested additional basis functions. For production calculations, 
#  uncomment them one after another (the most important basis functions are
#  listed first).
#
#  Constructed for dimers: 1.0 A, 1.25 A, 1.5 A, 2.0 A, 3.0 A
#
################################################################################
#  "First tier" - improvements: -1214.57 meV to -155.61 meV
     hydro 2 p 1.7
     hydro 3 d 6
     hydro 2 s 4.9
#  "Second tier" - improvements: -67.75 meV to -5.23 meV
#     hydro 4 f 9.8
#     hydro 3 p 5.2
#     hydro 3 s 4.3
#     hydro 5 g 14.4
#     hydro 3 d 6.2
#  "Third tier" - improvements: -2.43 meV to -0.60 meV
#     hydro 2 p 5.6
#     hydro 2 s 1.4
#     hydro 3 d 4.9
#     hydro 4 f 11.2
#  "Fourth tier" - improvements: -0.39 meV to -0.18 meV
#     hydro 2 p 2.1
#     hydro 5 g 16.4
#     hydro 4 d 13.2
#     hydro 3 s 13.6
#     hydro 4 f 17.6
#  Further basis functions - improvements: -0.08 meV and below
#     hydro 3 s 2
#     hydro 3 p 6
#     hydro 4 d 20
