atom_frac     0.000000000     0.000000000     0.000000000 He
atom_frac     0.500000000     0.500000000     0.500000000 He
lattice_vector     3.0000     0.0000     0.0000
lattice_vector     0.0000     3.0000     0.0000
lattice_vector     0.0000     0.0000     3.0000
