ATOMIC_SPECIES
B 1.000 B_ONCV_PBE-1.0.upf
N 1.000 N_ONCV_PBE-1.0.upf

NUMERICAL_ORBITAL
B_gga_8au_100Ry_2s2p1d.orb
N_gga_8au_100Ry_2s2p1d.orb

LATTICE_CONSTANT
1.8897162

LATTICE_VECTORS
1.808  1.808  0.000
1.808  0.000  1.808
0.000  1.808  1.808

ATOMIC_POSITIONS
Direct
B
0.0
1
0.000000     0.000000     0.000000 0 0 0

N
0.0
1
0.25 0.25 0.25 0 0 0
