lattice_vector   3.8301668167   0.0000000000   0.0000000000
lattice_vector   1.9150834084   3.3170217640   0.0000000000
lattice_vector   1.9150834084   1.1056739213   3.1273181102
atom_frac        0.0000000000   0.0000000000   0.0000000000  Si
atom_frac        0.2500000000   0.2500000000   0.2500000000  Si
