ATOMIC_SPECIES
Mn 1.000 Mn.upf
O 1.000 O.upf

NUMERICAL_ORBITAL
Mn_gga_8au_100Ry_2s1p1d.orb
O_gga_8au_100Ry_2s2p1d.orb

LATTICE_CONSTANT
1.8897162

LATTICE_VECTORS
2.894	-0.000	0.000
-1.447	2.506	0.000
-0.000	0.000	17.007

ATOMIC_POSITIONS
Cartesian
Mn
1.0
1
0.000000     0.000000     8.5 mag 3
O
1.0
2
0.0 1.67 7.54 mag 0.1
1.45 0.84 9.46 mag 0.1
