lattice_vector 2.827  2.827  0.0
lattice_vector 2.827  0.0    2.827  
lattice_vector 0.0    2.827  2.827  
atom_frac  0.0   0.0   0.0   Ga
atom_frac  0.25  0.25  0.25  As
