lattice_vector    20.00000     0.00000     0.00000
lattice_vector     0.00000    20.00000     0.00000
lattice_vector     0.00000     0.00000    20.00000
atom        -0.07712649        0.00000000        1.49704522  O
atom         0.82002231        0.00000000        1.86358518  H
atom         0.07269418       -0.00000000        0.53972961  H
