ATOMIC_SPECIES
Al 1.000 Al.upf
As 1.000 As.upf

NUMERICAL_ORBITAL
Al_gga_8au_100Ry_2s2p1d.orb
As_gga_8au_100Ry_2s2p2d1f.orb

LATTICE_CONSTANT
1.8897162

LATTICE_VECTORS
2.83  2.83  0.000
2.83  0.000  2.83
0.000  2.83  2.83

ATOMIC_POSITIONS
Direct
Al
0.0
1
0.000000     0.000000     0.000000 0 0 0

As
0.0
1
0.25 0.25 0.25 0 0 0
