INPUT_PARAMETERS
pseudo_dir      ./
orbital_dir     ./
init_chg        file
out_mat_xc      1
out_wfc_lcao    1
calculation     nscf
ntype           2
nbands          26
ecutwfc         100
smearing_method gaussian
smearing_sigma  1e-4
basis_type      lcao
ks_solver       genelpa
dft_functional  pbe
symmetry        -1
