lattice_vector 50.0  0.0  0.0
lattice_vector  0.0 50.0  0.0
lattice_vector  0.0  0.0 50.0
atom_frac  0.5000   0.5000   0.500 Li
initial_moment 1.0
