INPUT_PARAMETERS
#Parameters	(General)
pseudo_dir		./
orbital_dir		./
init_chg		file
out_eband_terms		1
out_mat_xc		    1
out_wfc_lcao		1

calculation	    nscf
ntype			2	
nbands			26
#Parameters (Accuracy)
ecutwfc			100

smearing_method 	gaussian
smearing_sigma		1e-4
basis_type		lcao
ks_solver  genelpa
dft_functional			pbe
#rpa				1
symmetry			-1
exx_separate_loop		1
exx_pca_threshold		10

#exx_v_threshold			0
#exx_c_threshold			0	
#exx_dm_threshold		0	
#exx_schwarz_threshold	0	
#exx_cauchy_threshold	1E-7

exx_use_ewald           1
exx_ccp_rmesh_times		2
rpa_ccp_rmesh_times	    5
