lattice_vector  0.0000      2.4      2.4
lattice_vector  2.4      0.0000        2.4
lattice_vector  2.4    2.4        0.0000

atom       0.00000000     0.00000000     0            He
