#  Volker Blum, FHI 2004 : Input file for LocalOrb code project
#
#  Input file control.in : All computational details for structure geometry.in
#
#  * First, general computational parameters:
#
#  Physics choices (model):
#
#  xc               pbe0
  xc               pbe
#  hse_unit         bohr-1
#  use_hf_kspace_with_rpa      .true.
#  qpe_calc         gw
#  spin             collinear
  relativistic     zora scalar 1.e-12
  occupation_type  gaussian 0.1
  RI_method        LVL
  total_energy_method rpa
  frequency_points 80
#  use_full_symmetry .true.
#  state_lower_limit 3
#
#  SCF cycle:
#
  KS_method        parallel
  mixer            pulay
    n_max_pulay    5
    charge_mix_param  0.6
  override_illconditioning .true.
#  preconditioner kerker 2.0
  sc_accuracy_rho  1E-5
  sc_accuracy_eev  1E-3
  sc_accuracy_etot 1E-5
  sc_iter_limit    200 
#
#  accuracy / efficiency for normal scf
#
  basis_threshold  1.e-4
#  distributed_spline_storage .true.
#
#  For MP2
#
#  hf_version 0 
#  empty_states     1000
  prodbas_threshold      1.e-3
#  frozen_core_postSCF   1
#  auxil_basis     full
#  partition_acc 1e-20
#  use_density_matrix_hf   .true.
#  prodbas_threshold 1.E-3
#
#  For periodic
#
  k_grid 4 4 4
#  use_density_matrix
#  packed_matrix_format index
#  output k_eigenvalue 1
#  restart  cu.slab.CO.top.pbe.relax
#  restart_save_iterations 3
#
# For relaxation:
#
#  relax_geometry bfgs 1e-2
#  sc_accuracy_forces 1e-4
#  * Next, specify output options:
#    - basis
#    - matrices
#    - grids
#    - v_eff
#    - v_hartree (partitioned Hartree potentials)
#
  #compute_numerical_stress .true.
#   output      self_energy
#  output       basis
#  output       matrices
#  output       grids
#  output       v_eff
#  output       v_hartree
#
#   output band  0.25  0.50  0.75  0.5   0.5   0.5   10 W      L
#   output band  0.5   0.5   0.5   0.25  0.25  0.25  10 L      Lambda
#   q
#   output band  0.25  0.25  0.25  0     0     0     10        Lambda Gamma
#   output band  0     0       0   0.00  0.25  0.25  10        Gamma  Delta
#   output band  0.00  0.25  0.25  0     0.5   0.5   10 Delta  X
#   output band  0     0.5   0.5   0.125 0.5   0.625 10 X      Z
#   output band  0.125 0.5   0.625 0.25  0.50  0.75  10 Z      W
#   output band  0.25  0.50  0.75  0.375 0.375 0.75  10 W      K
################################################################################
#
#  FHI-aims code project
# Volker Blum, Fritz Haber Institute Berlin, 2009
#
#  Suggested "tight" defaults for Mg atom (to be pasted into control.in file)
#
#  2016/03/22 : Included the tier2 f function by default. This is
#               certainly necessary to warrant the designation
#               "tight". Note that convergence tests by including
#               further individual radial functions from tier2 may be
#		a good idea anyway.
#
#  2016/03/28 : After further discussions, added full tier 2 to default basis 
#               set (this is "tight" after all). Note that, particularly for
#               hybrid functionals, it may be possible to get excellent accuracy
#               using just tier 1 + the f function from tier 2, at much reduced 
#               cost.
#
################################################################################
  species        Mg
#     global species definitions
    nucleus             12
    mass                24.3050
#
    l_hartree           6
#
    cut_pot             5.0          2.0  1.0
    basis_dep_cutoff    1e-4
#
    radial_base         40 7.0
    radial_multiplier   2
    angular_grids       specified
      division   0.5421   50
      division   0.8500  110
      division   1.0736  194
      division   1.1879  302
      division   1.2806  434
#      division   1.4147  590
#      division   1.4867  770
#      division   1.6422  974
#      division   2.6134 1202
#      outer_grid   974
      outer_grid  434
################################################################################
#
#  Definition of "minimal" basis
#
################################################################################
#     valence basis states
    valence      3  s   2.
    valence      2  p   6.
#     ion occupancy
    ion_occ      2  s   2.
    ion_occ      2  p   6.
################################################################################
#
#  Suggested additional basis functions. For production calculations, 
#  uncomment them one after another (the most important basis functions are
#  listed first).
#
#  Constructed for dimers: 2.125 A, 2.375 A, 2.875 A, 3.375 A, 4.5 A
#
################################################################################
#  "First tier" - improvements: -230.76 meV to -21.94 meV
     hydro 2 p 1.5
     ionic 3 d auto
     hydro 3 s 2.4
#  "Second tier" - improvements: -5.43 meV to -1.64 meV
#     hydro 4 f 4.3
#     hydro 2 p 3.4
#     hydro 4 s 11.2
#     hydro 3 d 6.2
#  "Third tier" - improvements: -0.92 meV to -0.22 meV
#     hydro 2 s 0.6
#     hydro 3 p 4.8
#     hydro 4 f 7.4
#     hydro 5 g 6.6
#     hydro 2 p 1.6
#     hydro 3 d 1.8
#  "Fourth tier" - improvements: -0.09 meV to -0.05 meV
#     hydro 4 p 0.45
#     hydro 5 g 10.4
#     hydro 2 s 12.4
#     hydro 4 d 1.7
################################################################################
#
# For methods that use the localized form of the "resolution of identity" for
# the two-electron Coulomb operator (RI_method LVL), particularly Hartree-Fock and
# hybrid density functional calculations, the highest accuracy can be obtained by
# uncommenting the line beginning with "for_aux"  below, thus adding an extra g radial
# function to the construction of the product basis set for the expansion.
# See Ref. New J. Phys. 17, 093020 (2015) for more information, particularly Figs. 1 and 6.
#
################################################################################
#
# for_aux hydro 5 g 6.0
################################################################################
#
#  FHI-aims code project
# Volker Blum, Fritz Haber Institute Berlin, 2009
#
#  Suggested "tight" defaults for O atom (to be pasted into control.in file)
#
################################################################################
  species        O
#     global species definitions
    nucleus             8
    mass                15.9994
#
    l_hartree           6
#
    cut_pot             4.0  2.0  1.0
    basis_dep_cutoff    1e-4
#
    radial_base         36 7.0
    radial_multiplier   2
     angular_grids specified
      division   0.1817   50
      division   0.3417  110
      division   0.4949  194
      division   0.6251  302
      division   0.8014  434
#      division   0.8507  590
#      division   0.8762  770
#      division   0.9023  974
#      division   1.2339 1202
#      outer_grid 974
      outer_grid  434
################################################################################
#
#  Definition of "minimal" basis
#
################################################################################
#     valence basis states
    valence      2  s   2.
    valence      2  p   4.
#     ion occupancy
    ion_occ      2  s   1.
    ion_occ      2  p   3.
################################################################################
#
#  Suggested additional basis functions. For production calculations, 
#  uncomment them one after another (the most important basis functions are
#  listed first).
#
#  Constructed for dimers: 1.0 A, 1.208 A, 1.5 A, 2.0 A, 3.0 A
#
################################################################################
#  "First tier" - improvements: -699.05 meV to -159.38 meV
     hydro 2 p 1.8
     hydro 3 d 7.6
     hydro 3 s 6.4
#  "Second tier" - improvements: -49.91 meV to -5.39 meV
#     hydro 4 f 11.6
#     hydro 3 p 6.2
#     hydro 3 d 5.6
#     hydro 5 g 17.6
#     hydro 1 s 0.75
#  "Third tier" - improvements: -2.83 meV to -0.50 meV
#     ionic 2 p auto
#     hydro 4 f 10.8
#     hydro 4 d 4.7
#     hydro 2 s 6.8
#  "Fourth tier" - improvements: -0.40 meV to -0.12 meV
#     hydro 3 p 5
#     hydro 3 s 3.3
#     hydro 5 g 15.6
#     hydro 4 f 17.6
#     hydro 4 d 14
# Further basis functions - -0.08 meV and below
#     hydro 3 s 2.1
#     hydro 4 d 11.6
#     hydro 3 p 16
#     hydro 2 s 17.2
################################################################################
#
# For methods that use the localized form of the "resolution of identity" for
# the two-electron Coulomb operator (RI_method LVL), particularly Hartree-Fock and
# hybrid density functional calculations, the highest accuracy can be obtained by
# uncommenting the line beginning with "for_aux"  below, thus adding an extra g radial
# function to the construction of the product basis set for the expansion.
# See Ref. New J. Phys. 17, 093020 (2015) for more information, particularly Figs. 1 and 6.
#
################################################################################
#
# for_aux hydro 5 g 6.0
