#Mg1 O1

lattice_vector   3.0097887516         0.0000000000         0.0000000000
lattice_vector   1.5048943758         2.6065535189         0.0000000000
lattice_vector   1.5048943758         0.8688511730         2.4574822250


atom_frac   0.000000000         0.000000000         0.000000000  Mg
atom_frac   0.500000000         0.500000000         0.500000000  O
